NAME: st70-12-2
TYPE: TSP
COMMENT: min_cost = 289.73
DIMENSION: 12
EDGE_WEIGHT_TYPE: EUC_2D
NODE_COORD_SECTION
1 58 85
2 27 43
3 30 9
4 74 67
5 62 1
6 68 40
7 67 99
8 64 8
9 7 76
10 42 67
11 69 23
12 78 94
EOF
